ITEM: TIMESTEP
750000
ITEM: NUMBER OF ATOMS
224
ITEM: BOX BOUNDS mm mm mm
-3e-06 0.030003
-1.2e-05 0.120012
-5e-06 0.050005
ITEM: ATOMS v_x1 v_y1 v_z1 v_rad1 
2.1246e-05 3.94777e-05 0.000121244 2.125e-05 
7.00823e-05 6.25267e-05 0.000123746 2.375e-05 
1.87494e-05 5.53356e-05 0.000157879 1.875e-05 
5.5262e-05 2.12477e-05 0.000139031 2.125e-05 
9.75066e-05 2.37461e-05 0.000123744 2.375e-05 
0.000147339 4.5767e-05 0.000131244 3.125e-05 
0.000187508 1.87484e-05 0.000118747 1.875e-05 
0.000192709 7.02098e-05 0.000121246 2.125e-05 
0.000101466 5.56296e-05 0.000147567 1.625e-05 
0.000117507 1.87485e-05 0.000160906 1.875e-05 
0.000225005 1.87479e-05 0.000118747 1.875e-05 
0.000225973 5.36432e-05 0.000116247 1.625e-05 
0.000268754 3.94753e-05 0.000131244 3.125e-05 
2.62482e-05 8.64465e-05 0.000126245 2.625e-05 
3.40006e-05 0.000145467 0.000133743 3.375e-05 
7.62089e-05 0.000125166 0.000116246 1.625e-05 
8.45201e-05 0.000136338 0.000148354 1.875e-05 
6.53797e-05 0.000100707 0.000134699 1.625e-05 
8.34259e-05 0.000159321 0.000118746 1.875e-05 
0.000118778 0.000146818 0.000118747 1.875e-05 
0.000112748 9.87838e-05 0.000131243 3.125e-05 
0.000160695 9.2274e-05 0.000143831 1.875e-05 
0.000193594 0.000117434 0.000126245 2.625e-05 
0.000161458 0.000158944 0.000126245 2.625e-05 
0.000282722 8.30547e-05 0.000116248 1.625e-05 
0.000236364 9.15724e-05 0.000123746 2.375e-05 
0.000241928 0.000143551 0.000128744 2.875e-05 
0.000281153 0.00011801 0.000118747 1.875e-05 
0.000281254 0.000155081 0.00015275 1.875e-05 
6.94591e-05 0.000205673 0.000131244 3.125e-05 
1.8749e-05 0.000193409 0.000118746 1.875e-05 
2.37464e-05 0.000235315 0.000123745 2.375e-05 
1.62494e-05 0.000187955 0.000153225 1.625e-05 
0.00018155 0.000212583 0.000131243 3.125e-05 
0.0001262 0.000197838 0.000126245 2.625e-05 
0.000202432 0.000164486 0.000116248 1.625e-05 
0.000228394 0.000191095 0.000121246 2.125e-05 
0.00027625 0.000185737 0.000123745 2.375e-05 
0.000251515 0.000209488 0.000144336 1.625e-05 
0.000276252 0.000233236 0.000123746 2.375e-05 
0.000222973 0.000222993 0.000152026 1.625e-05 
0.000230299 0.000230971 0.000118746 1.875e-05 
4.7116e-05 0.000270455 0.000118746 1.875e-05 
8.47781e-05 0.000293908 0.000126245 2.625e-05 
1.62476e-05 0.000295017 0.000116246 1.625e-05 
4.24531e-05 0.000304176 0.000137556 1.875e-05 
1.87489e-05 0.000272787 0.000143159 1.875e-05 
0.000109565 0.000247631 0.000126245 2.625e-05 
0.000134618 0.000290833 0.000123744 2.375e-05 
0.000165492 0.000262895 0.000146592 2.375e-05 
0.000176729 0.000286409 0.000116248 1.625e-05 
0.000202529 0.000259657 0.000121245 2.125e-05 
0.000211891 0.000300434 0.000116248 1.625e-05 
0.000246237 0.000270049 0.000123745 2.375e-05 
0.000281253 0.000272861 0.000147659 1.875e-05 
0.000273751 0.000311721 0.000126245 2.625e-05 
1.87495e-05 0.000326549 0.000156098 1.875e-05 
3.85629e-05 0.0003671 0.000123745 2.375e-05 
6.05654e-05 0.000331088 0.000118746 1.875e-05 
9.49747e-05 0.000345993 0.000118747 1.875e-05 
1.87494e-05 0.000329837 0.000118746 1.875e-05 
0.000114699 0.000322645 0.000143671 1.875e-05 
0.000114307 0.000359921 0.000147702 1.875e-05 
0.000172654 0.000325488 0.000123746 2.375e-05 
0.000151407 0.000389115 0.000131243 3.125e-05 
0.000134168 0.000342812 0.000118747 1.875e-05 
0.000192408 0.000362784 0.000118747 1.875e-05 
0.00019863 0.000399768 0.000118745 1.875e-05 
0.000232956 0.000344767 0.000126245 2.625e-05 
0.000283752 0.000351795 0.000116245 1.625e-05 
0.000240456 0.000394149 0.000123745 2.375e-05 
0.000276252 0.000374699 0.000148164 2.375e-05 
8.80556e-05 0.000467542 0.000118745 1.875e-05 
1.87472e-05 0.000445554 0.000118744 1.875e-05 
8.42411e-05 0.000400628 0.000133742 3.375e-05 
2.59456e-05 0.000469529 0.000153084 2.375e-05 
2.6247e-05 0.000410304 0.000145683 2.625e-05 
5.06248e-05 0.000465299 0.000118746 1.875e-05 
0.000178762 0.000439441 0.000126244 2.625e-05 
0.00013142 0.000436619 0.000121245 2.125e-05 
0.000146458 0.000454418 0.000153755 1.875e-05 
0.00010414 0.000450536 0.000154214 2.375e-05 
0.000281251 0.000404959 0.000118746 1.875e-05 
0.000212898 0.000410276 0.000151791 1.875e-05 
0.00025756 0.000431741 0.000116248 1.625e-05 
0.000239515 0.000472741 0.000123745 2.375e-05 
0.000281253 0.000466511 0.000118746 1.875e-05 
0.000222631 0.000432749 0.000118747 1.875e-05 
0.000283751 0.000435734 0.000135221 1.625e-05 
0.000215532 0.000450105 0.000154355 2.125e-05 
2.22518e-05 0.00050111 0.000121246 2.125e-05 
6.70776e-05 0.000504164 0.000123746 2.375e-05 
9.3967e-05 0.000536691 0.000118747 1.875e-05 
6.89941e-05 0.000472206 0.000147724 1.625e-05 
5.37359e-05 0.000547089 0.000121247 2.125e-05 
1.62484e-05 0.000537784 0.000116247 1.625e-05 
0.000127308 0.000499014 0.000133742 3.375e-05 
0.000171994 0.00052854 0.000121246 2.125e-05 
0.000214096 0.000512864 0.000123745 2.375e-05 
0.000206944 0.000556064 0.000116248 1.625e-05 
0.000278752 0.000561072 0.000121246 2.125e-05 
0.000273751 0.000510242 0.000126245 2.625e-05 
0.000283751 0.000541729 0.000152978 1.625e-05 
0.000240382 0.000501403 0.00015511 1.875e-05 
0.000242731 0.000543865 0.000118747 1.875e-05 
1.87487e-05 0.00061445 0.000118747 1.875e-05 
6.01419e-05 0.000597085 0.000123747 2.375e-05 
2.12454e-05 0.000574608 0.000121247 2.125e-05 
8.98253e-05 0.000571352 0.000116246 1.625e-05 
9.6018e-05 0.000628208 0.000123746 2.375e-05 
4.7482e-05 0.000634275 0.000116246 1.625e-05 
0.000145241 0.000619803 0.000126245 2.625e-05 
0.000134218 0.000563595 0.000131244 3.125e-05 
0.000188068 0.000631401 0.000118746 1.875e-05 
0.000183231 0.000587393 0.000123746 2.375e-05 
0.000283728 0.000599807 0.000116248 1.625e-05 
0.000237522 0.000591995 0.000131243 3.125e-05 
0.000199611 0.000617464 0.000151587 1.875e-05 
0.000233177 0.000634638 0.00015171 1.625e-05 
9.99886e-05 0.000695863 0.000116246 1.625e-05 
2.12462e-05 0.000660593 0.000121247 2.125e-05 
6.74424e-05 0.000670435 0.000126246 2.625e-05 
2.87553e-05 0.000709451 0.000128745 2.875e-05 
0.000130527 0.000706968 0.000116246 1.625e-05 
0.000163305 0.000689455 0.000121246 2.125e-05 
0.000197543 0.000668586 0.000118745 1.875e-05 
0.000125169 0.000665705 0.000123746 2.375e-05 
0.00017141 0.000655447 0.000149574 2.375e-05 
0.000189198 0.000719834 0.000118745 1.875e-05 
0.000224102 0.000642113 0.000118746 1.875e-05 
0.000199916 0.000695276 0.000141259 1.625e-05 
0.000271252 0.000641552 0.000128744 2.875e-05 
0.000283751 0.000682935 0.000116246 1.625e-05 
0.000238494 0.00068566 0.000126245 2.625e-05 
0.000246689 0.000713662 0.000157145 1.625e-05 
0.000276396 0.000684019 0.000150444 1.875e-05 
1.87474e-05 0.000754793 0.000118746 1.875e-05 
8.19201e-05 0.000737148 0.000131244 3.125e-05 
5.06102e-05 0.000791237 0.000131244 3.125e-05 
0.000154118 0.000730883 0.000126055 1.875e-05 
0.000125905 0.000757375 0.000118746 1.875e-05 
0.000158604 0.000789091 0.000126245 2.625e-05 
0.000179164 0.000753269 0.000116245 1.625e-05 
0.000143118 0.000755608 0.000152012 1.875e-05 
0.00018684 0.000742387 0.000148609 1.875e-05 
9.82655e-05 0.000782717 0.000118746 1.875e-05 
0.000116121 0.000802501 0.00014857 2.125e-05 
0.000225688 0.000736901 0.00013227 2.375e-05 
0.000273756 0.000724552 0.000126244 2.625e-05 
0.000272392 0.000779226 0.000126245 2.625e-05 
0.000207868 0.000780093 0.000123745 2.375e-05 
0.000283751 0.000752155 0.000156972 1.625e-05 
7.16849e-05 0.000878661 0.000123746 2.375e-05 
2.37466e-05 0.000875178 0.000123745 2.375e-05 
5.01872e-05 0.000842895 0.000140578 2.125e-05 
1.87488e-05 0.000831283 0.000118746 1.875e-05 
8.96291e-05 0.000829265 0.000123746 2.375e-05 
1.87489e-05 0.000821597 0.00015497 1.875e-05 
0.000118097 0.000868577 0.000123746 2.375e-05 
0.000156859 0.000851894 0.000118744 1.875e-05 
0.000131531 0.000824243 0.000118745 1.875e-05 
0.000151322 0.000873939 0.000145359 1.625e-05 
0.000194341 0.000828159 0.000126246 2.625e-05 
0.000153276 0.000829755 0.00015484 2.375e-05 
0.000238924 0.000812559 0.000121246 2.125e-05 
0.000276254 0.000885063 0.000123745 2.375e-05 
0.000276252 0.000837561 0.000123745 2.375e-05 
0.000229726 0.000866939 0.000126245 2.625e-05 
0.000283751 0.000861312 0.000155042 1.625e-05 
1.87475e-05 0.000938088 0.000118747 1.875e-05 
4.52037e-05 0.000911517 0.000118745 1.875e-05 
1.87473e-05 0.000911499 0.000145315 1.875e-05 
8.15942e-05 0.000946253 0.000133743 3.375e-05 
0.000183138 0.000884912 0.000123745 2.375e-05 
0.000193456 0.000931274 0.000123744 2.375e-05 
0.000140431 0.000918745 0.000131244 3.125e-05 
0.000210443 0.000902459 0.000151177 1.875e-05 
0.000242491 0.000921854 0.000126246 2.625e-05 
0.000283754 0.000923632 0.000116246 1.625e-05 
0.000273751 0.000964031 0.000126245 2.625e-05 
1.88931e-05 0.00102991 0.000151197 1.875e-05 
1.87485e-05 0.00101112 0.000118746 1.875e-05 
4.42092e-05 0.000986437 0.000137243 2.125e-05 
6.34912e-05 0.00102076 0.000121245 2.125e-05 
1.62465e-05 0.000972905 0.000116246 1.625e-05 
0.000132365 0.000991643 0.00014996 1.625e-05 
0.000164978 0.00103357 0.000145008 1.625e-05 
0.000103336 0.001 0.000123746 2.375e-05 
0.000197685 0.00100948 0.000123745 2.375e-05 
0.000146932 0.00101086 0.000121245 2.125e-05 
0.000127975 0.00096574 0.000118745 1.875e-05 
0.000168089 0.000971861 0.000138187 2.625e-05 
0.000283752 0.00100411 0.000116248 1.625e-05 
0.000245144 0.00101139 0.000123746 2.375e-05 
0.000224862 0.00096763 0.000121247 2.125e-05 
8.01003e-05 0.00110585 0.000116248 1.625e-05 
1.87489e-05 0.0010714 0.000148337 1.875e-05 
6.13116e-05 0.00106794 0.000126246 2.625e-05 
3.12482e-05 0.0011167 0.000131244 3.125e-05 
2.14145e-05 0.00104853 0.000118745 1.875e-05 
9.73559e-05 0.00104206 0.000118747 1.875e-05 
0.000161877 0.00106915 0.000153189 1.625e-05 
0.000116402 0.00111727 0.000121246 2.125e-05 
0.000125616 0.00108894 0.00014797 1.875e-05 
0.000193202 0.00105921 0.000126244 2.625e-05 
0.000104209 0.00107926 0.000118745 1.875e-05 
0.000162789 0.001102 0.000126244 2.625e-05 
0.00013877 0.00105504 0.000123746 2.375e-05 
0.000233411 0.00105499 0.000151171 2.125e-05 
0.000242 0.00109458 0.000126245 2.625e-05 
0.000273753 0.00105232 0.000126244 2.625e-05 
0.000281241 0.0011153 0.000118747 1.875e-05 
0.000201823 0.00109625 0.000145215 1.625e-05 
7.04535e-05 0.00116998 0.000118746 1.875e-05 
2.62473e-05 0.00117375 0.000126245 2.625e-05 
8.46523e-05 0.00113809 0.000116248 1.625e-05 
0.000161942 0.00118125 0.000153295 1.875e-05 
0.000118846 0.00116875 0.000131244 3.125e-05 
0.000191994 0.00117582 0.000123744 2.375e-05 
0.000161768 0.00114636 0.000118747 1.875e-05 
0.000204191 0.00112991 0.000123745 2.375e-05 
0.000276254 0.00115721 0.000123745 2.375e-05 
0.000236827 0.00117875 0.000121247 2.125e-05 
0.00024031 0.00114333 0.000134468 1.625e-05 
