ITEM: TIMESTEP
750000
ITEM: NUMBER OF ATOMS
465
ITEM: BOX BOUNDS mm mm mm
-6e-06 0.060006
-1.5e-05 0.150015
-5e-06 0.050005
ITEM: ATOMS v_x1 v_y1 v_z1 v_rad1 
3.17463e-05 3.12503e-05 0.000131244 3.125e-05 
1.62495e-05 8.56997e-05 0.000116248 1.625e-05 
6.23312e-05 8.28372e-05 0.000128744 2.875e-05 
0.00010986 6.92414e-05 0.000121247 2.125e-05 
8.07383e-05 3.1663e-05 0.000118747 1.875e-05 
0.000129427 2.62488e-05 0.000126245 2.625e-05 
0.000154753 8.06312e-05 0.000121246 2.125e-05 
0.000158873 5.11697e-05 0.000144074 1.625e-05 
0.000207503 5.64867e-05 0.000133743 3.375e-05 
0.000181179 1.62625e-05 0.000116248 1.625e-05 
0.000243701 8.62094e-05 0.000116247 1.625e-05 
0.000332934 3.12487e-05 0.000131243 3.125e-05 
0.00026735 3.1248e-05 0.000131244 3.125e-05 
0.000309332 7.22917e-05 0.000135048 1.625e-05 
0.000277753 7.85276e-05 0.000118747 1.875e-05 
0.000417729 3.18167e-05 0.000131244 3.125e-05 
0.000375434 1.62491e-05 0.000116248 1.625e-05 
0.000377706 6.4287e-05 0.000121247 2.125e-05 
0.000432906 7.42544e-05 0.000116248 1.625e-05 
0.000460024 1.62487e-05 0.000116247 1.625e-05 
0.000496849 2.12491e-05 0.000121247 2.125e-05 
0.000467115 5.49317e-05 0.000123746 2.375e-05 
0.00053572 2.23738e-05 0.000150641 1.875e-05 
0.00051635 8.46624e-05 0.000126245 2.625e-05 
0.000573751 2.62491e-05 0.000126245 2.625e-05 
0.000533674 1.62493e-05 0.000116246 1.625e-05 
0.000571251 8.1194e-05 0.000128744 2.875e-05 
0.000583751 5.07881e-05 0.00015947 1.625e-05 
2.87495e-05 0.000129512 0.000128744 2.875e-05 
7.59319e-05 0.0001278 0.000118747 1.875e-05 
6.00005e-05 0.000159824 0.000116248 1.625e-05 
9.30787e-05 0.000186255 0.000155811 1.875e-05 
0.000115741 0.000113784 0.000123745 2.375e-05 
0.000162281 0.000122456 0.000121244 2.125e-05 
0.000103711 0.000160288 0.000123746 2.375e-05 
0.000137119 0.000144114 0.000138664 1.625e-05 
0.000128197 0.000173064 0.000156173 1.875e-05 
0.000171438 0.000176128 0.000131243 3.125e-05 
0.000169531 0.000135436 0.000155669 1.625e-05 
0.000218086 0.000189093 0.000118747 1.875e-05 
0.000217591 0.000127129 0.000136242 3.625e-05 
0.000343739 8.98277e-05 0.000121247 2.125e-05 
0.000259282 0.000172603 0.000126245 2.625e-05 
0.000306086 0.00010309 0.000118746 1.875e-05 
0.00030619 0.000147456 0.000126246 2.625e-05 
0.000266153 0.000120503 0.000116248 1.625e-05 
0.000379849 0.000106848 0.000118747 1.875e-05 
0.00041424 0.000100858 0.000116248 1.625e-05 
0.000351775 0.000178128 0.000128744 2.875e-05 
0.000348103 0.000134346 0.000116248 1.625e-05 
0.000401101 0.00017488 0.000121245 2.125e-05 
0.000395241 0.000138181 0.000116248 1.625e-05 
0.000473624 9.66307e-05 0.000118747 1.875e-05 
0.000443773 0.000139382 0.000136242 3.625e-05 
0.000498101 0.000168619 0.000126245 2.625e-05 
0.000544299 0.000134739 0.000131244 3.125e-05 
0.000583719 0.000159584 0.000116248 1.625e-05 
7.48037e-05 0.000194682 0.000121245 2.125e-05 
2.6278e-05 0.000186701 0.000126245 2.625e-05 
5.62723e-05 0.000226895 0.000116247 1.625e-05 
2.12534e-05 0.000285463 0.000121247 2.125e-05 
2.12482e-05 0.000239321 0.000121247 2.125e-05 
5.42752e-05 0.000261746 0.000118746 1.875e-05 
0.000123013 0.000211478 0.00012874 2.875e-05 
0.000100632 0.000264434 0.000128744 2.875e-05 
0.000145072 0.00027019 0.000116248 1.625e-05 
0.000176515 0.000235856 0.000128744 2.875e-05 
0.000228644 0.000228371 0.000116248 1.625e-05 
0.000263504 0.000226502 0.000118747 1.875e-05 
0.000267844 0.00027093 0.000126243 2.625e-05 
0.000301175 0.000194422 0.000121246 2.125e-05 
0.000317935 0.000243155 0.000131244 3.125e-05 
0.000320958 0.000200768 0.000152463 1.625e-05 
0.000412661 0.000227468 0.000121246 2.125e-05 
0.000382903 0.000255753 0.000116245 1.625e-05 
0.000362127 0.000223396 0.000118746 1.875e-05 
0.000382247 0.00023881 0.000149688 2.125e-05 
0.000422011 0.000278152 0.000131244 3.125e-05 
0.000399596 0.000202772 0.000149871 1.875e-05 
0.000355212 0.000268056 0.000153382 1.875e-05 
0.000439906 0.000194849 0.000121247 2.125e-05 
0.00048267 0.000223793 0.000131243 3.125e-05 
0.000509705 0.000194924 0.000157545 1.625e-05 
0.000581251 0.000200998 0.000118746 1.875e-05 
0.000536977 0.000204017 0.000126245 2.625e-05 
0.00057124 0.000247016 0.000128744 2.875e-05 
0.000518188 0.000251579 0.000116248 1.625e-05 
0.000570963 0.000208151 0.000151424 1.625e-05 
5.8771e-05 0.000289388 0.00014368 1.875e-05 
3.62957e-05 0.00033903 0.000136242 3.625e-05 
8.09503e-05 0.00030649 0.000118746 1.875e-05 
0.000106683 0.000306643 0.000143114 1.625e-05 
0.00010013 0.000348777 0.000128744 2.875e-05 
0.000148409 0.000315437 0.000128744 2.875e-05 
0.000146306 0.000366425 0.000121246 2.125e-05 
0.000190755 0.000350443 0.000126245 2.625e-05 
0.000254646 0.000366879 0.000144058 1.875e-05 
0.000241339 0.000336838 0.000121246 2.125e-05 
0.000228047 0.000374482 0.000118746 1.875e-05 
0.000209612 0.00029129 0.000136243 3.625e-05 
0.000326541 0.000290798 0.000118747 1.875e-05 
0.000291233 0.00032392 0.000131244 3.125e-05 
0.000342647 0.000324688 0.000118747 1.875e-05 
0.000392342 0.000335932 0.000133743 3.375e-05 
0.000351299 0.000358524 0.000116248 1.625e-05 
0.000366425 0.000289063 0.000121245 2.125e-05 
0.000456192 0.000328967 0.000128744 2.875e-05 
0.00047656 0.000278084 0.000123746 2.375e-05 
0.000504457 0.000348242 0.000121247 2.125e-05 
0.000531814 0.000298204 0.000136242 3.625e-05 
0.000566242 0.000362088 0.000133743 3.375e-05 
2.12499e-05 0.000392462 0.000121247 2.125e-05 
8.30145e-05 0.000435348 0.000116247 1.625e-05 
1.8747e-05 0.000432923 0.000118778 1.875e-05 
5.194e-05 0.00045939 0.000123745 2.375e-05 
6.41546e-05 0.00038746 0.000121247 2.125e-05 
0.000108748 0.000403037 0.000126245 2.625e-05 
0.000177757 0.000414432 0.000138741 3.875e-05 
0.000118607 0.000451989 0.000123745 2.375e-05 
0.000127103 0.000428445 0.000154944 1.625e-05 
0.000249917 0.00041979 0.000133743 3.375e-05 
0.000303456 0.000421313 0.000121247 2.125e-05 
0.000332447 0.000458613 0.000126241 2.625e-05 
0.00028493 0.000471982 0.000121247 2.125e-05 
0.000333272 0.000391026 0.000121247 2.125e-05 
0.000295698 0.000447197 0.000154078 2.125e-05 
0.000290155 0.000378396 0.000123746 2.375e-05 
0.000409951 0.000421576 0.000121247 2.125e-05 
0.000367581 0.000416113 0.000121246 2.125e-05 
0.000382859 0.000458371 0.000123745 2.375e-05 
0.000361162 0.000438014 0.000154093 1.875e-05 
0.000376736 0.000380094 0.000116248 1.625e-05 
0.00045658 0.000420209 0.000121246 2.125e-05 
0.000494165 0.000433661 0.000118745 1.875e-05 
0.00048264 0.000460258 0.00014982 2.375e-05 
0.000433349 0.000379083 0.000126245 2.625e-05 
0.000434751 0.00046456 0.000128745 2.875e-05 
0.000566237 0.000429726 0.000133743 3.375e-05 
0.000517095 0.000395677 0.000126245 2.625e-05 
0.000523755 0.000456697 0.000118747 1.875e-05 
4.64376e-05 0.000556206 0.000121245 2.125e-05 
1.62493e-05 0.000532758 0.000116246 1.625e-05 
2.1248e-05 0.000495931 0.000121246 2.125e-05 
5.88168e-05 0.000515633 0.00013625 2.375e-05 
2.13206e-05 0.000541698 0.000152306 2.125e-05 
1.87476e-05 0.000467308 0.000149073 1.875e-05 
8.85732e-05 0.000485401 0.000121245 2.125e-05 
0.000108095 0.000528413 0.000126245 2.625e-05 
0.000155168 0.000532158 0.000127812 1.875e-05 
0.000161032 0.000482502 0.000128744 2.875e-05 
0.000118171 0.000490174 0.00014772 1.875e-05 
0.000135878 0.000558978 0.000116247 1.625e-05 
0.00025167 0.000494405 0.000118747 1.875e-05 
0.000213766 0.000467082 0.000126245 2.625e-05 
0.000204643 0.00052363 0.000131244 3.125e-05 
0.000261177 0.000535351 0.000121247 2.125e-05 
0.000298846 0.000545493 0.000116248 1.625e-05 
0.000293103 0.000511058 0.000118747 1.875e-05 
0.000335148 0.000525233 0.000126245 2.625e-05 
0.000397654 0.000508492 0.000128745 2.875e-05 
0.000358158 0.000490935 0.000116245 1.625e-05 
0.00048956 0.000499349 0.000123745 2.375e-05 
0.000441615 0.000507237 0.000116244 1.625e-05 
0.00046611 0.000534434 0.000118747 1.875e-05 
0.000428312 0.000547265 0.000121245 2.125e-05 
0.000443462 0.000520325 0.000153991 2.375e-05 
0.000496954 0.000550776 0.000116247 1.625e-05 
0.00045884 0.00056201 0.000146868 2.125e-05 
0.000523302 0.000527542 0.000118747 1.875e-05 
0.000571252 0.000491823 0.000128744 2.875e-05 
0.000528027 0.000491355 0.000116247 1.625e-05 
0.000568753 0.000551717 0.000131244 3.125e-05 
1.62455e-05 0.000577871 0.000116247 1.625e-05 
6.18427e-05 0.00062749 0.000118747 1.875e-05 
3.87693e-05 0.000601296 0.000116248 1.625e-05 
2.12509e-05 0.000635041 0.000121247 2.125e-05 
9.12652e-05 0.000585513 0.000133743 3.375e-05 
0.000129988 0.000630724 0.000126245 2.625e-05 
0.000144659 0.00058866 0.000132577 1.875e-05 
0.00018392 0.000655916 0.000133743 3.375e-05 
0.000249668 0.000618084 0.000121246 2.125e-05 
0.000232768 0.000570291 0.000123745 2.375e-05 
0.000183499 0.000573844 0.000123745 2.375e-05 
0.00021072 0.000607905 0.000134865 2.125e-05 
0.000248239 0.000595523 0.000154242 1.875e-05 
0.000234222 0.000654894 0.000118747 1.875e-05 
0.000281611 0.000639074 0.000116248 1.625e-05 
0.000333346 0.000577699 0.000126245 2.625e-05 
0.000324298 0.000631889 0.000128745 2.875e-05 
0.000281102 0.00058283 0.000126245 2.625e-05 
0.000383286 0.000561523 0.000126245 2.625e-05 
0.00038782 0.000616277 0.000128744 2.875e-05 
0.000418451 0.000571906 0.000147733 1.625e-05 
0.000486715 0.000588709 0.000123745 2.375e-05 
0.00043224 0.000594585 0.000121246 2.125e-05 
0.000461395 0.000631747 0.000126245 2.625e-05 
0.000525875 0.000565591 0.000116246 1.625e-05 
0.000581253 0.00062925 0.000118746 1.875e-05 
0.000537191 0.000609209 0.000131255 3.125e-05 
0.000583749 0.000594227 0.000116248 1.625e-05 
5.06158e-05 0.000733925 0.000121245 2.125e-05 
3.12499e-05 0.000685748 0.000131244 3.125e-05 
1.62469e-05 0.00073058 0.000135858 1.625e-05 
7.70693e-05 0.000707826 0.000116247 1.625e-05 
0.000136851 0.000700669 0.000131244 3.125e-05 
0.000100206 0.000736907 0.000121246 2.125e-05 
8.78391e-05 0.000665964 0.000128745 2.875e-05 
0.000230204 0.000705044 0.000133743 3.375e-05 
0.000181085 0.000720725 0.000118747 1.875e-05 
0.000295852 0.000720737 0.000133743 3.375e-05 
0.000290424 0.000670355 0.000116248 1.625e-05 
0.000331526 0.000680789 0.000121246 2.125e-05 
0.000420147 0.000737673 0.000131243 3.125e-05 
0.000384126 0.000737697 0.000162203 1.625e-05 
0.000358218 0.000722395 0.000128744 2.875e-05 
0.000398303 0.000684721 0.000126245 2.625e-05 
0.000363585 0.000657002 0.000118746 1.875e-05 
0.000377596 0.000655506 0.000153495 1.875e-05 
0.000500595 0.000658105 0.000121246 2.125e-05 
0.000506646 0.000725791 0.000128744 2.875e-05 
0.00045933 0.000688987 0.000131244 3.125e-05 
0.00042788 0.000655888 0.000116247 1.625e-05 
0.00058375 0.000654685 0.000142656 1.625e-05 
0.000529912 0.000662404 0.000148115 1.875e-05 
0.000550399 0.000717291 0.000116248 1.625e-05 
0.000583751 0.000721884 0.000116247 1.625e-05 
0.000578745 0.00068506 0.000121246 2.125e-05 
0.000530104 0.000685718 0.000118746 1.875e-05 
0.00055212 0.000655306 0.000118747 1.875e-05 
1.87499e-05 0.000761009 0.000118747 1.875e-05 
4.50503e-05 0.000801655 0.000131244 3.125e-05 
6.77567e-05 0.000759796 0.000146477 1.875e-05 
1.62484e-05 0.000836319 0.000116247 1.625e-05 
0.000102987 0.00078626 0.000128744 2.875e-05 
0.000161655 0.000807217 0.000133743 3.375e-05 
0.000101995 0.000843748 0.000128745 2.875e-05 
0.000161242 0.000751888 0.000116248 1.625e-05 
0.000204082 0.0007616 0.000128744 2.875e-05 
0.000243166 0.000810114 0.000133743 3.375e-05 
0.000201431 0.000843682 0.000121246 2.125e-05 
0.000327886 0.00077091 0.000126245 2.625e-05 
0.000254451 0.000759565 0.000118747 1.875e-05 
0.000291571 0.000796401 0.000118746 1.875e-05 
0.000283242 0.000770532 0.000144581 1.875e-05 
0.000338186 0.000818059 0.000122226 1.875e-05 
0.000301943 0.000834949 0.000121246 2.125e-05 
0.000364117 0.000795332 0.000116245 1.625e-05 
0.000380561 0.000795088 0.000144272 1.625e-05 
0.000379529 0.000764011 0.000118745 1.875e-05 
0.0003968 0.000797757 0.000116248 1.625e-05 
0.000429402 0.000785193 0.000118747 1.875e-05 
0.00042104 0.000825928 0.000121246 2.125e-05 
0.000363692 0.000764485 0.00015273 1.875e-05 
0.000377843 0.00082987 0.000121247 2.125e-05 
0.000468114 0.000810839 0.000128744 2.875e-05 
0.000448004 0.000774106 0.000151153 1.875e-05 
0.000496631 0.000773399 0.000147886 2.125e-05 
0.000468052 0.000756682 0.000121246 2.125e-05 
0.000523998 0.000774902 0.000118747 1.875e-05 
0.000565717 0.00079826 0.000126246 2.625e-05 
0.000548028 0.000751332 0.000140354 2.125e-05 
0.000543109 0.000833146 0.000116246 1.625e-05 
0.000519386 0.000811412 0.000140005 2.375e-05 
0.000581253 0.000756702 0.000118746 1.875e-05 
0.000578753 0.000843658 0.000121245 2.125e-05 
2.12487e-05 0.000889016 0.000121245 2.125e-05 
4.83858e-05 0.000849952 0.000118747 1.875e-05 
7.13969e-05 0.000882574 0.000121246 2.125e-05 
1.62495e-05 0.000857482 0.000140909 1.625e-05 
8.14107e-05 0.000911279 0.000147237 1.875e-05 
1.62492e-05 0.000906477 0.00015405 1.625e-05 
4.74654e-05 0.000903479 0.000143818 1.625e-05 
6.84396e-05 0.000923325 0.000116248 1.625e-05 
0.000146075 0.000919675 0.000116248 1.625e-05 
0.000120244 0.000889687 0.000121246 2.125e-05 
0.000109197 0.000933234 0.000123744 2.375e-05 
0.00015019 0.000859535 0.000121245 2.125e-05 
0.000177792 0.000858015 0.000150152 1.875e-05 
0.000184974 0.000900813 0.000128744 2.875e-05 
0.000226554 0.000941319 0.000128744 2.875e-05 
0.000228148 0.000876733 0.000121247 2.125e-05 
0.000259983 0.000904889 0.000121247 2.125e-05 
0.000266462 0.000858343 0.000121246 2.125e-05 
0.000309413 0.000905454 0.000128744 2.875e-05 
0.000295757 0.000864168 0.000147848 1.875e-05 
0.000343721 0.000862535 0.000126245 2.625e-05 
0.000371782 0.000903841 0.000123745 2.375e-05 
0.000402764 0.000864296 0.000121246 2.125e-05 
0.00040736 0.000895307 0.000149938 2.125e-05 
0.000346355 0.000917595 0.000151389 1.625e-05 
0.000460569 0.00087374 0.000116248 1.625e-05 
0.000436737 0.000906249 0.000121245 2.125e-05 
0.000486112 0.00090864 0.000128745 2.875e-05 
0.0005001 0.00085551 0.000126245 2.625e-05 
0.000450438 0.000925632 0.000150275 1.625e-05 
0.000581251 0.000859583 0.00015785 1.875e-05 
0.000540178 0.000865513 0.000116248 1.625e-05 
0.00057304 0.000890544 0.000126245 2.625e-05 
0.000537189 0.000928892 0.000126245 2.625e-05 
0.000581251 0.000934146 0.000118747 1.875e-05 
2.87486e-05 0.000941523 0.000128744 2.875e-05 
6.46197e-05 0.00101878 0.000118746 1.875e-05 
2.62488e-05 0.000996503 0.000126245 2.625e-05 
7.63034e-05 0.000973842 0.000128744 2.875e-05 
0.000104356 0.000953834 0.000157686 1.625e-05 
0.000138076 0.000981934 0.000133743 3.375e-05 
0.000185977 0.000965204 0.000118747 1.875e-05 
0.000188426 0.00100784 0.000123746 2.375e-05 
0.000242479 0.00101467 0.000131243 3.125e-05 
0.000296646 0.000970976 0.000138741 3.875e-05 
0.000352129 0.000997251 0.00015448 2.125e-05 
0.000344915 0.000939853 0.000121246 2.125e-05 
0.000350841 0.000979331 0.000118746 1.875e-05 
0.000400126 0.000957483 0.000138741 3.875e-05 
0.000425477 0.00100534 0.000118747 1.875e-05 
0.000383348 0.00101926 0.000126245 2.625e-05 
0.000471234 0.000997443 0.000128745 2.875e-05 
0.000456823 0.000948492 0.000121245 2.125e-05 
0.000498804 0.000956415 0.000121246 2.125e-05 
0.000453916 0.000964197 0.000157915 1.875e-05 
0.000525868 0.000989205 0.000121246 2.125e-05 
0.000581253 0.00102146 0.000118747 1.875e-05 
0.000573335 0.000977804 0.000126245 2.625e-05 
0.000546516 0.000999987 0.000150632 1.625e-05 
3.62485e-05 0.00106253 0.000136242 3.625e-05 
2.12498e-05 0.00111597 0.000121247 2.125e-05 
8.28218e-05 0.00108535 0.000116248 1.625e-05 
0.00015041 0.00102712 0.000116245 1.625e-05 
0.000107299 0.00104542 0.000133743 3.375e-05 
0.000122626 0.0011058 0.000128744 2.875e-05 
0.000167218 0.00104938 0.000141294 2.125e-05 
0.000147298 0.0010703 0.000116248 1.625e-05 
0.000234172 0.00110861 0.000123745 2.375e-05 
0.000225917 0.00107349 0.000141007 1.625e-05 
0.000204689 0.00104972 0.000121246 2.125e-05 
0.000182883 0.00109162 0.000126244 2.625e-05 
0.000206747 0.00111638 0.000155265 1.875e-05 
0.000287949 0.00102559 0.000139576 1.625e-05 
0.000272241 0.00106963 0.000131243 3.125e-05 
0.000336751 0.00107889 0.000126245 2.625e-05 
0.000328273 0.00102708 0.000126244 2.625e-05 
0.000394295 0.00107548 0.000131244 3.125e-05 
0.00043321 0.00104546 0.000118747 1.875e-05 
0.000505301 0.00108566 0.000128744 2.875e-05 
0.000474816 0.00104675 0.000121246 2.125e-05 
0.000450381 0.00108717 0.000126245 2.625e-05 
0.000538009 0.00103837 0.000128744 2.875e-05 
0.000565442 0.00109552 0.000128744 2.875e-05 
0.000583749 0.00105633 0.000116248 1.625e-05 
7.88068e-05 0.00115382 0.000121247 2.125e-05 
5.49818e-05 0.00119192 0.000123746 2.375e-05 
1.6251e-05 0.0011853 0.000116247 1.625e-05 
1.62499e-05 0.0011528 0.000116248 1.625e-05 
1.62592e-05 0.00119591 0.000146964 1.625e-05 
7.48784e-05 0.00111687 0.000116248 1.625e-05 
0.000160751 0.0012056 0.000138741 3.875e-05 
0.000121283 0.00115522 0.000121247 2.125e-05 
0.00016648 0.00114149 0.000126245 2.625e-05 
0.000112629 0.00119136 0.000116246 1.625e-05 
9.18501e-05 0.00121272 0.000138998 2.125e-05 
0.000255226 0.00115887 0.000131243 3.125e-05 
0.000205807 0.00115583 0.000148694 2.125e-05 
0.000199287 0.00117345 0.000116246 1.625e-05 
0.000224512 0.00120741 0.000126245 2.625e-05 
0.000265853 0.00120316 0.000116248 1.625e-05 
0.000277428 0.00121493 0.000149918 2.125e-05 
0.000302164 0.00112158 0.000128744 2.875e-05 
0.000332438 0.00116065 0.000121246 2.125e-05 
0.000300072 0.00118819 0.000121247 2.125e-05 
0.000364109 0.00118899 0.000121246 2.125e-05 
0.00041734 0.00113106 0.000128745 2.875e-05 
0.000362797 0.00112447 0.000126245 2.625e-05 
0.000405426 0.00117904 0.000121246 2.125e-05 
0.000382417 0.00120789 0.000151372 1.875e-05 
0.000453051 0.00117797 0.000126245 2.625e-05 
0.00049049 0.00116048 0.000116248 1.625e-05 
0.000512538 0.00119634 0.000118747 1.875e-05 
0.0005039 0.00113034 0.000116246 1.625e-05 
0.000466767 0.0011318 0.000121247 2.125e-05 
0.000525399 0.00116105 0.000118747 1.875e-05 
0.000571252 0.00115305 0.000128744 2.875e-05 
0.000581251 0.00119839 0.000118746 1.875e-05 
0.000528718 0.00112871 0.000147568 2.375e-05 
0.00058125 0.00121389 0.000152888 1.875e-05 
2.21253e-05 0.00122256 0.000121246 2.125e-05 
2.12466e-05 0.0012862 0.000121246 2.125e-05 
6.2854e-05 0.00125579 0.000131243 3.125e-05 
1.62488e-05 0.00125431 0.000140316 1.625e-05 
0.000116673 0.0012473 0.000123746 2.375e-05 
0.000161446 0.00127835 0.000131244 3.125e-05 
0.00010497 0.00129845 0.000128744 2.875e-05 
0.000215266 0.00131104 0.000131243 3.125e-05 
0.000204912 0.00125066 0.000121246 2.125e-05 
0.000213453 0.00126784 0.00015634 1.875e-05 
0.000266787 0.00130966 0.000121247 2.125e-05 
0.000291043 0.00122424 0.000116245 1.625e-05 
0.000321798 0.00131173 0.000118746 1.875e-05 
0.000308426 0.00125451 0.000118746 1.875e-05 
0.000255777 0.00125897 0.000131243 3.125e-05 
0.000299305 0.00128682 0.0001405 2.125e-05 
0.000402989 0.00128126 0.000128744 2.875e-05 
0.000370566 0.00123138 0.000121246 2.125e-05 
0.000348593 0.00127336 0.000126245 2.625e-05 
0.000419896 0.00122631 0.000128744 2.875e-05 
0.000477387 0.00122723 0.000128744 2.875e-05 
0.000502652 0.00126974 0.000116248 1.625e-05 
0.000460946 0.00128233 0.000128744 2.875e-05 
0.000578752 0.00123823 0.000121246 2.125e-05 
0.000531552 0.00123644 0.000126245 2.625e-05 
0.000561251 0.00129289 0.000138741 3.875e-05 
6.85515e-05 0.00132726 0.000118747 1.875e-05 
3.42051e-05 0.00132103 0.000116246 1.625e-05 
1.87475e-05 0.00135005 0.00012822 1.875e-05 
2.65639e-05 0.00139432 0.000126245 2.625e-05 
8.306e-05 0.00140377 0.000131244 3.125e-05 
0.000140805 0.00138767 0.000128745 2.875e-05 
0.000158143 0.00133554 0.000126245 2.625e-05 
0.000103119 0.00135147 0.000123746 2.375e-05 
0.000175816 0.00141302 0.000116246 1.625e-05 
0.000202884 0.0013748 0.000133743 3.375e-05 
0.000295071 0.00134138 0.000121246 2.125e-05 
0.000336113 0.00137729 0.000131243 3.125e-05 
0.000257274 0.00139054 0.000123745 2.375e-05 
0.00025177 0.00134849 0.000118747 1.875e-05 
0.000287713 0.00137118 0.000150638 2.125e-05 
0.000384383 0.00138098 0.000118745 1.875e-05 
0.000366165 0.00132542 0.000128744 2.875e-05 
0.000372881 0.0014034 0.000146154 1.625e-05 
0.00037843 0.00136385 0.000148679 1.625e-05 
0.000406771 0.00139113 0.000143657 1.625e-05 
0.000430848 0.00134193 0.000138741 3.875e-05 
0.000500703 0.0013272 0.000131244 3.125e-05 
0.000502885 0.00139408 0.000123746 2.375e-05 
0.000475606 0.00136463 0.000116247 1.625e-05 
0.00052896 0.00136468 0.000116248 1.625e-05 
0.000456474 0.0013965 0.000121246 2.125e-05 
0.000576249 0.00140532 0.000123746 2.375e-05 
0.00057375 0.00135544 0.000126245 2.625e-05 
1.62483e-05 0.00143432 0.000116247 1.625e-05 
3.8709e-05 0.00147125 0.000128745 2.875e-05 
0.000145596 0.00143688 0.000121247 2.125e-05 
0.000100807 0.00146625 0.000133743 3.375e-05 
0.000152889 0.00147875 0.000121247 2.125e-05 
0.000239572 0.00148375 0.000140226 1.625e-05 
0.000239303 0.0014588 0.000116248 1.625e-05 
0.000191363 0.00144678 0.000121245 2.125e-05 
0.000212087 0.00148091 0.000118746 1.875e-05 
0.00018559 0.00147875 0.000148631 2.125e-05 
0.000323487 0.00147875 0.000141573 2.125e-05 
0.000295892 0.00143889 0.000153373 2.125e-05 
0.000314062 0.00144729 0.000118745 1.875e-05 
0.000278438 0.00147375 0.000126244 2.625e-05 
0.000262206 0.00143246 0.000118747 1.875e-05 
0.00029722 0.0014111 0.000121245 2.125e-05 
0.000429843 0.00141387 0.000141117 1.625e-05 
0.000429285 0.00144567 0.000121246 2.125e-05 
0.000396028 0.00141921 0.000121246 2.125e-05 
0.000402612 0.00147875 0.000121247 2.125e-05 
0.000360438 0.00147351 0.000121246 2.125e-05 
0.000352252 0.00142933 0.000123746 2.375e-05 
0.000482814 0.00144751 0.000133743 3.375e-05 
0.000439518 0.00148315 0.000116248 1.625e-05 
0.000520135 0.00148125 0.000118747 1.875e-05 
0.000528898 0.00142732 0.000118747 1.875e-05 
0.00056625 0.00146112 0.000133743 3.375e-05 
